NAME : A-n32-k5
COMMENT : (Augerat et al, No of trucks: 5, Optimal value: 784)
TYPE : CVRP
DIMENSION : 32
EDGE_WEIGHT_TYPE : EUC_2D 
CAPACITY : 100
NODE_COORD_SECTION 
 1 0 0
 2 0 2
 3 0 4
 4 0 6
 5 0 8
 6 1 1
 7 1 3
 8 1 5
 9 1 7
 10 1 9
 11 2 0
 12 2 2
 13 2 4
 14 2 6
 15 2 8
 16 3 1
 17 3 3
 18 3 5
 19 3 7
 20 3 9
 21 8 0
 22 8 2
 23 8 4
 24 8 6
 25 8 8
 26 6 1
 27 6 3
 28 6 5
 29 6 7
 30 6 9
 31 4 4
 32 4 8
DEMAND_SECTION 
1 0 
2 0 
3 0 
4 0 
5 0 
6 0 
7 12 
8 0 
9 0 
10 0 
11 0 
12 0 
13 21 
14 0 
15 0 
16 0 
17 18 
18 0 
19 1 
20 0 
21 8 
22 0 
23 0 
24 0 
25 0 
26 24 
27 0 
28 0 
29 0 
30 0 
31 14 
32 0 
DEPOT_SECTION 
 1  
 -1  
EOF 
